c CNF file corresponding to a (partial) station packing problem.
p cnf 4565 229
1 2 3 4 5 6 7 8 9 10 11 12 13 14 0
-1 -2 0
-1 -3 0
-1 -4 0
-1 -5 0
-1 -6 0
-1 -7 0
-1 -8 0
-1 -9 0
-1 -10 0
-1 -11 0
-1 -12 0
-1 -13 0
-1 -14 0
-2 -3 0
-2 -4 0
-2 -5 0
-2 -6 0
-2 -7 0
-2 -8 0
-2 -9 0
-2 -10 0
-2 -11 0
-2 -12 0
-2 -13 0
-2 -14 0
-3 -4 0
-3 -5 0
-3 -6 0
-3 -7 0
-3 -8 0
-3 -9 0
-3 -10 0
-3 -11 0
-3 -12 0
-3 -13 0
-3 -14 0
-4 -5 0
-4 -6 0
-4 -7 0
-4 -8 0
-4 -9 0
-4 -10 0
-4 -11 0
-4 -12 0
-4 -13 0
-4 -14 0
-5 -6 0
-5 -7 0
-5 -8 0
-5 -9 0
-5 -10 0
-5 -11 0
-5 -12 0
-5 -13 0
-5 -14 0
-6 -7 0
-6 -8 0
-6 -9 0
-6 -10 0
-6 -11 0
-6 -12 0
-6 -13 0
-6 -14 0
-7 -8 0
-7 -9 0
-7 -10 0
-7 -11 0
-7 -12 0
-7 -13 0
-7 -14 0
-8 -9 0
-8 -10 0
-8 -11 0
-8 -12 0
-8 -13 0
-8 -14 0
-9 -10 0
-9 -11 0
-9 -12 0
-9 -13 0
-9 -14 0
-10 -11 0
-10 -12 0
-10 -13 0
-10 -14 0
-11 -12 0
-11 -13 0
-11 -14 0
-12 -13 0
-12 -14 0
-13 -14 0
4549 4550 4551 4552 4553 4554 4555 4556 4557 4558 4559 4560 4561 4562 4563 4564 4565 0
-4549 -4550 0
-4549 -4551 0
-4549 -4552 0
-4549 -4553 0
-4549 -4554 0
-4549 -4555 0
-4549 -4556 0
-4549 -4557 0
-4549 -4558 0
-4549 -4559 0
-4549 -4560 0
-4549 -4561 0
-4549 -4562 0
-4549 -4563 0
-4549 -4564 0
-4549 -4565 0
-4550 -4551 0
-4550 -4552 0
-4550 -4553 0
-4550 -4554 0
-4550 -4555 0
-4550 -4556 0
-4550 -4557 0
-4550 -4558 0
-4550 -4559 0
-4550 -4560 0
-4550 -4561 0
-4550 -4562 0
-4550 -4563 0
-4550 -4564 0
-4550 -4565 0
-4551 -4552 0
-4551 -4553 0
-4551 -4554 0
-4551 -4555 0
-4551 -4556 0
-4551 -4557 0
-4551 -4558 0
-4551 -4559 0
-4551 -4560 0
-4551 -4561 0
-4551 -4562 0
-4551 -4563 0
-4551 -4564 0
-4551 -4565 0
-4552 -4553 0
-4552 -4554 0
-4552 -4555 0
-4552 -4556 0
-4552 -4557 0
-4552 -4558 0
-4552 -4559 0
-4552 -4560 0
-4552 -4561 0
-4552 -4562 0
-4552 -4563 0
-4552 -4564 0
-4552 -4565 0
-4553 -4554 0
-4553 -4555 0
-4553 -4556 0
-4553 -4557 0
-4553 -4558 0
-4553 -4559 0
-4553 -4560 0
-4553 -4561 0
-4553 -4562 0
-4553 -4563 0
-4553 -4564 0
-4553 -4565 0
-4554 -4555 0
-4554 -4556 0
-4554 -4557 0
-4554 -4558 0
-4554 -4559 0
-4554 -4560 0
-4554 -4561 0
-4554 -4562 0
-4554 -4563 0
-4554 -4564 0
-4554 -4565 0
-4555 -4556 0
-4555 -4557 0
-4555 -4558 0
-4555 -4559 0
-4555 -4560 0
-4555 -4561 0
-4555 -4562 0
-4555 -4563 0
-4555 -4564 0
-4555 -4565 0
-4556 -4557 0
-4556 -4558 0
-4556 -4559 0
-4556 -4560 0
-4556 -4561 0
-4556 -4562 0
-4556 -4563 0
-4556 -4564 0
-4556 -4565 0
-4557 -4558 0
-4557 -4559 0
-4557 -4560 0
-4557 -4561 0
-4557 -4562 0
-4557 -4563 0
-4557 -4564 0
-4557 -4565 0
-4558 -4559 0
-4558 -4560 0
-4558 -4561 0
-4558 -4562 0
-4558 -4563 0
-4558 -4564 0
-4558 -4565 0
-4559 -4560 0
-4559 -4561 0
-4559 -4562 0
-4559 -4563 0
-4559 -4564 0
-4559 -4565 0
-4560 -4561 0
-4560 -4562 0
-4560 -4563 0
-4560 -4564 0
-4560 -4565 0
-4561 -4562 0
-4561 -4563 0
-4561 -4564 0
-4561 -4565 0
-4562 -4563 0
-4562 -4564 0
-4562 -4565 0
-4563 -4564 0
-4563 -4565 0
-4564 -4565 0
